c status 280 1469390897296
c status 210 1469390897340
c status 189 1469390898595
c status 188 1469390900371
c status 187 1469390914338
c status 186 1469390925477
c status 185 1469391023232
c status 183 1469391052403
s td 193 183 426
b 1 264 281
b 2 316 331
b 3 328 355
b 4 303 378
b 5 341 135
b 6 230 63
b 7 413 90
b 8 8 141 108
b 9 165 241 175
b 10 66 168 335
b 11 156 75 223
b 12 75 186 223
b 13 213 186 177
b 14 269 362 142
b 15 315 343 333
b 16 275 306 337
b 17 164 386 232
b 18 331 351 123
b 19 360 357 339
b 20 326 355 349
b 21 400 205 168
b 22 239 249 170
b 23 141 108 136 37 146 373 401 195 421 1
b 24 108 136 97 67 37 146 39 373 401 120 160 195 421 1
b 25 227 396 284 136 198 153 72 234 157 422 237 223 273 376 31 85 151 190 83 64 261 368 137 246 297
b 26 396 284 136 198 153 103 72 234 157 422 237 223 273 376 31 85 151 190 83 64 261 368 137 246 297
b 27 215 284 97 419 29 282 132 163 422 313 31 10 397 388 211 60 129 252 185 16 174 110 69
b 28 284 136 97 419 198 29 282 132 153 103 163 72 234 157 422 237 223 273 376 313 31 10 397 85 162 151 388 211 60 129 190 83 252 185 64 261 16 368 63 290 174 32 137 246 297 182 110 180 69
b 29 136 97 419 198 412 29 282 67 37 146 132 153 39 373 401 283 103 163 72 120 234 157 422 237 223 160 273 376 313 31 10 397 85 162 151 388 211 60 129 195 190 83 252 421 185 64 372 261 1 16 368 63 290 174 32 137 246 297 182 110 180 69
b 30 127 225 97 198 70 228 394 251 405 175 371 223 236 59 252 79 210 421 185 64 41 167 180
b 31 119 192 225 97 419 29 194 199 201 177 50 65 260 257 113 122 162 190 252 210 41 58 243 40 15 110
b 32 192 225 97 419 198 29 194 415 406 369 283 145 199 201 177 366 50 65 260 257 113 122 162 26 190 252 210 23 73 41 58 51 243 40 15 32 147 110
b 33 118 225 67 217
b 34 399 225 76 226 287
b 35 225 97 419 198 412 29 212 67 194 37 70 228 232 217 132 415 394 251 76 401 208 406 369 283 145 199 201 177 366 50 65 260 257 405 175 391 237 371 223 113 122 52 226 31 162 388 26 236 59 287 190 252 79 210 421 185 64 23 73 183 41 58 51 243 40 15 167 32 147 17 335 38 110 180
b 36 97 419 198 412 29 212 282 67 57 194 37 222 146 70 228 232 6 217 132 153 39 415 394 251 76 373 87 401 208 406 369 283 145 199 201 103 177 366 163 50 65 260 72 120 234 257 157 405 175 391 382 422 237 371 223 160 273 376 113 92 122 52 313 226 31 10 397 85 162 151 388 26 236 211 60 129 195 59 287 190 83 252 79 210 421 185 64 23 73 181 372 183 261 41 58 51 243 40 1 16 368 63 290 15 167 174 32 137 147 246 17 335 297 38 182 110 180 69 245
b 37 419 198 412 29 212 282 67 57 194 37 222 146 70 228 232 6 217 132 153 39 415 394 251 76 373 87 401 208 406 369 283 145 199 201 103 177 366 163 50 65 260 72 120 234 257 157 405 175 391 382 187 422 237 371 223 160 273 376 113 92 122 52 313 226 31 10 397 85 162 151 388 26 236 211 60 129 195 59 287 190 83 252 79 210 421 185 64 23 73 181 372 183 261 41 58 51 402 243 40 1 16 368 63 290 15 167 174 32 137 147 246 17 335 297 38 182 110 180 69 245
b 38 114 106 55 26
b 39 106 207 57 370 55 26
b 40 207 143 67 57 39 148 131 76 279 19 145 128 370 189 55 46 26 60 59 64 409 292 426
b 41 240 100 288 408 143 193 405 155 187 407 55 181 372 40 1 180
b 42 288 408 143 282 193 256 405 155 187 189 407 55 181 372 40 1 180
b 43 408 143 212 282 150 193 406 260 256 405 155 187 189 407 249 395 55 122 185 181 372 258 261 243 40 1 180
b 44 143 212 282 67 57 150 193 39 148 131 76 279 406 19 145 154 128 260 256 405 155 187 370 189 407 425 249 395 55 122 46 26 60 59 268 185 64 409 181 372 258 261 292 243 40 1 426 180
b 45 212 282 67 57 194 37 150 222 104 193 146 70 228 232 6 217 132 153 39 148 415 131 394 251 76 279 373 87 401 208 406 369 283 19 145 199 201 103 154 177 366 163 128 50 65 260 72 120 256 234 257 157 405 175 391 382 155 187 370 189 422 237 407 425 371 223 160 273 376 249 395 55 113 92 122 52 313 226 31 10 397 85 162 151 388 46 26 236 211 60 129 195 59 287 268 190 83 252 79 210 421 185 64 409 23 73 181 372 258 183 261 292 41 58 135 51 402 243 40 1 16 368 63 290 15 167 426 174 32 137 147 246 17 335 297 38 182 110 180 69 245
b 46 282 67 57 194 37 150 222 104 193 146 70 228 232 6 217 132 153 39 148 415 131 394 251 76 279 373 87 401 208 406 369 283 19 145 199 201 103 154 177 366 163 128 50 65 260 72 120 256 234 257 157 405 175 391 382 155 187 370 189 422 237 407 425 371 223 160 273 376 249 395 55 113 92 122 52 313 226 31 10 397 85 162 151 388 46 26 236 211 60 129 195 272 59 287 268 190 83 252 79 210 421 185 64 409 23 73 181 372 258 183 261 292 41 58 135 51 402 243 40 1 16 368 63 290 15 167 426 174 32 137 147 246 17 335 297 38 182 110 180 69 245
b 47 57 194 37 150 222 104 193 146 70 228 232 6 217 132 153 39 148 415 131 394 251 76 279 373 87 401 208 406 369 283 19 145 199 201 103 139 154 177 366 163 128 50 65 260 72 120 256 234 257 157 405 175 391 382 155 187 370 189 422 237 407 425 371 223 160 273 376 249 395 55 113 92 122 52 313 226 31 10 397 85 162 151 388 46 26 236 211 60 129 195 272 59 287 268 190 83 252 79 210 421 185 64 409 23 73 181 372 258 183 261 292 41 58 135 51 402 243 40 1 16 368 63 290 15 167 426 174 32 137 147 246 17 335 297 38 182 110 180 69 245
b 48 270 381 62 386 296 42 150 222 104 146 217 132 394 208 145 391 377 389 116 64 23 18 41 58 105 297 110 69 229
b 49 381 62 386 296 42 150 222 104 146 217 132 394 208 145 391 377 389 116 64 23 18 41 58 25 246 105 297 110 69 229
b 50 393 78 62 13 42 228 217 76 22 87 12 385 126 163 65 55 4 10 83 64 183
b 51 78 62 13 42 228 217 131 76 22 87 12 385 126 163 65 120 189 224 160 55 4 10 83 64 423 183
b 52 62 386 13 296 42 194 150 222 104 146 228 217 132 131 394 76 22 87 208 145 12 385 126 163 65 72 120 191 391 377 189 224 160 55 4 10 389 116 83 64 23 423 18 183 41 58 51 25 246 105 297 110 69 229
b 53 49 88 294 386 265 104 193 379 12 126 163 260 120 287 387 268 267 423 258 41 426 335 38
b 54 88 294 386 265 104 193 379 12 126 163 260 120 236 287 387 268 190 267 423 258 41 16 15 426 335 38
b 55 294 386 265 222 104 193 379 12 126 163 260 120 236 287 387 268 190 267 423 258 41 16 15 426 335 38
b 56 204 386 265 6 132 158 382 155 189 272 59 48 38 69 229
b 57 386 13 265 296 42 194 150 222 104 193 146 228 232 6 217 132 131 394 76 22 87 208 145 379 12 385 126 163 65 260 72 120 158 191 391 377 382 155 189 224 160 101 55 4 10 389 236 116 272 59 287 387 268 190 83 48 185 64 23 267 423 18 258 183 41 58 51 16 15 426 25 246 335 105 297 38 110 69 229
b 58 3 13 104 370
b 59 24 274 176 42 148 251 279 201 379 154 173 94 128 365 244 140 226 247 31 10 151 79 73 41 58 278
b 60 274 176 42 148 415 131 251 279 201 379 154 173 94 128 365 244 140 226 247 31 10 151 60 79 73 183 41 58 135 254 278 110
b 61 214 176 216 112 13 265 42 70 6 153 39 394 11 411 124 257 235 157 175 407 224 160 376 211 59 403 287 197 83 115 23 73 58 16 86 2 147 110 184
b 62 176 216 112 13 265 42 70 6 153 39 148 415 131 394 251 279 201 379 154 173 94 128 365 11 411 124 244 257 235 157 175 377 407 224 160 376 140 226 247 31 10 151 211 60 272 59 403 287 197 83 79 115 23 73 183 41 58 135 16 254 278 86 2 147 110 184
b 63 71 410 374 216 112 296 104 146 232 6 153 76 391 121 287 210 73 347 243 182
b 64 410 374 216 112 296 104 146 232 6 153 76 87 391 121 237 287 210 73 347 402 243 182
b 65 374 216 112 296 104 146 232 6 153 76 87 391 121 237 30 287 210 73 347 402 243 182
b 66 216 112 13 265 296 42 104 146 70 232 6 153 39 148 415 131 394 251 76 279 87 201 379 154 173 94 128 365 11 411 124 244 257 235 157 175 391 377 121 237 407 224 160 376 30 140 226 247 31 10 151 211 60 272 59 403 287 197 83 79 210 115 23 73 183 347 41 58 135 402 243 16 254 278 86 2 147 182 110 184
b 67 202 84 313 368
b 68 84 220 112 296 37 271 283 157 92 313 397 368 63
b 69 220 112 296 37 415 271 283 157 92 313 397 368 63 218 86 147
b 70 112 13 265 296 42 37 104 146 70 232 6 132 153 39 148 415 131 394 251 76 279 87 271 283 201 379 154 173 94 128 365 11 411 124 244 257 235 157 175 391 377 121 237 407 224 160 376 30 101 92 313 140 226 247 31 10 397 151 211 60 272 59 403 287 197 83 79 210 115 23 73 183 347 41 58 135 402 243 16 368 63 254 278 218 86 2 147 182 110 69 184
b 71 13 265 296 42 194 37 150 222 104 193 146 70 228 232 6 217 132 153 39 148 415 131 394 251 76 279 22 87 208 271 283 145 201 379 12 154 173 385 94 126 163 128 365 65 260 11 411 72 120 124 244 257 235 157 175 158 191 391 377 382 155 121 370 189 237 407 224 160 376 30 101 55 92 4 313 140 226 247 31 10 397 151 389 236 211 60 116 272 59 403 287 387 268 197 190 83 48 79 210 115 185 64 23 73 267 423 18 258 183 347 41 58 135 51 402 243 16 368 63 15 254 278 426 218 86 2 25 147 246 335 105 297 38 182 110 69 184 229
b 72 296 42 194 37 150 222 104 193 146 70 228 232 6 217 132 153 39 148 415 131 394 251 76 279 22 87 208 271 283 145 201 379 12 154 173 385 94 126 163 128 365 65 260 11 411 72 120 256 124 244 257 235 157 175 158 191 391 377 382 155 121 370 189 237 407 224 160 376 30 101 55 92 4 313 140 226 247 31 10 397 151 389 236 211 60 116 272 59 403 287 387 268 197 190 83 48 79 210 115 185 64 23 73 267 423 18 258 183 347 41 58 135 51 402 243 16 368 63 15 254 278 426 218 86 2 25 147 246 335 105 297 38 182 110 69 184 229
b 73 89 228 131 103 385 366 249 170
b 74 416 194 251 279 126
b 75 380 6 87 237
b 76 194 37 150 222 104 193 146 70 228 232 6 217 132 153 39 148 415 131 394 251 76 279 373 22 87 401 208 406 369 271 283 19 145 199 201 379 12 103 139 154 173 385 94 177 366 126 163 128 365 50 65 260 11 411 72 120 256 234 124 244 257 235 157 405 175 158 191 391 377 382 155 187 121 370 189 422 237 407 425 224 371 223 160 273 376 30 101 249 395 55 113 92 122 4 52 313 140 226 247 31 10 397 85 162 151 388 46 26 389 236 211 60 129 195 116 272 59 403 287 387 268 197 190 83 48 252 79 210 115 421 185 64 409 23 73 267 423 18 181 372 258 183 261 347 292 41 58 135 51 402 243 40 1 16 368 63 290 15 254 278 167 426 174 218 86 2 32 137 25 147 246 17 335 105 297 38 182 110 180 69 184 245 229
b 77 146 70 228 232 6 217 132 153 39 148 415 131 394 251 76 279 373 22 87 401 208 406 369 271 283 19 145 199 201 379 12 103 139 154 173 385 94 177 366 126 163 128 365 50 65 260 11 411 72 120 256 234 134 124 244 257 235 157 405 175 158 191 391 377 382 155 187 121 370 189 422 237 407 425 224 371 223 160 273 376 30 101 249 395 55 113 92 122 4 52 313 140 226 247 31 10 397 85 162 151 388 46 336 26 389 236 211 60 129 195 116 272 59 403 287 387 268 197 190 83 48 252 79 210 115 421 185 64 409 23 73 267 423 18 181 372 258 183 261 347 292 41 58 135 51 402 243 40 1 16 378 368 63 290 15 254 278 167 426 174 218 86 2 32 137 25 147 246 17 335 105 297 38 182 110 180 69 184 245 229
b 78 228 232 6 217 132 153 39 148 415 131 394 251 76 279 373 22 87 358 401 208 406 369 271 283 19 145 199 201 379 12 103 139 154 173 385 94 177 366 126 163 128 365 50 65 260 11 411 72 120 256 234 134 124 244 257 235 157 405 175 158 191 391 377 382 155 187 121 370 189 422 237 407 425 224 371 223 160 273 376 30 101 249 395 55 113 92 122 4 52 313 140 226 247 31 10 397 85 162 151 388 46 336 26 389 236 211 60 129 195 116 272 59 403 287 387 268 197 190 83 48 252 79 210 115 421 185 64 409 23 73 267 423 18 181 372 258 183 261 347 292 41 58 135 51 402 243 40 1 16 378 368 63 290 15 254 278 167 426 170 174 218 86 2 32 137 25 147 246 17 335 105 297 38 182 110 180 69 184 245 229
b 79 153 39 148 415 131 394 251 76 279 373 22 87 358 401 208 406 369 271 283 19 145 199 201 379 12 103 139 154 173 385 94 177 366 126 163 128 365 50 65 260 11 411 72 120 256 234 134 124 244 257 235 157 405 175 158 191 391 377 382 155 187 121 370 189 422 237 407 425 224 371 223 160 273 376 30 101 249 395 55 113 92 122 4 52 313 140 226 247 31 10 397 85 162 151 388 46 336 26 389 236 211 60 129 195 116 272 59 403 287 387 268 197 190 83 48 252 79 210 115 421 185 64 409 23 73 267 423 18 181 372 258 183 261 347 292 41 58 135 51 402 243 40 1 16 378 368 63 290 15 254 278 167 426 170 174 218 86 2 32 123 137 25 147 246 17 335 105 297 38 182 110 180 69 184 245 229
b 80 415 131 394 251 76 279 373 22 87 358 401 208 406 369 271 283 19 145 199 201 379 12 103 139 154 173 385 94 177 366 126 163 128 365 50 65 260 11 411 72 120 256 234 134 124 244 257 235 157 405 175 158 191 391 377 382 155 187 121 370 189 422 237 407 425 224 371 223 160 273 376 30 101 249 395 55 113 92 122 4 52 313 140 226 247 31 10 397 85 162 151 388 46 336 26 389 236 211 60 129 195 116 272 59 403 287 387 268 197 190 83 48 252 79 210 115 421 185 64 409 23 73 267 423 18 181 372 258 183 261 347 292 41 58 367 135 51 402 243 40 1 16 378 368 63 290 15 254 278 167 426 170 174 218 86 2 32 123 137 25 147 246 17 335 105 297 38 182 110 180 69 184 245 229
b 81 251 76 279 373 22 87 358 401 208 406 369 271 283 19 145 199 201 379 12 103 139 154 173 385 94 177 366 126 163 128 365 50 65 260 11 411 72 120 256 234 134 124 244 257 235 157 405 175 158 191 391 377 382 155 187 121 370 189 422 237 407 425 224 371 223 160 273 376 30 101 249 395 55 113 92 122 4 52 313 140 226 247 31 10 397 85 162 151 388 46 336 26 389 236 211 60 129 195 116 272 59 403 287 387 268 197 190 83 48 252 79 210 115 421 185 64 409 23 73 267 423 18 181 372 258 183 261 347 292 41 58 367 135 51 402 243 40 1 16 378 368 63 290 15 254 278 167 426 170 174 218 86 2 32 123 137 25 147 242 246 17 335 105 297 38 182 110 180 69 184 245 229
b 82 7 27 45 82 56 179 21 76 19 379 126 65 395 55 4 85 278 335 248
b 83 27 45 82 56 179 21 76 19 379 126 65 395 55 4 85 403 409 278 335 182 248 229
b 84 161 277 295 183 402
b 85 277 111 45 14 44 231 295 391 382 31 26 60 129 268 423 18 183 135 402 137
b 86 111 33 45 14 44 231 295 154 391 382 249 31 26 60 129 268 423 18 183 135 402 137
b 87 33 45 14 44 231 295 154 72 391 382 249 52 31 26 60 129 268 423 18 183 135 402 137
b 88 130 45 417 383 50 121 376 4 258 238 25
b 89 45 14 44 82 231 417 295 56 179 383 21 76 19 379 154 126 50 65 72 391 382 121 376 249 395 55 4 52 31 85 26 60 129 403 287 268 409 423 18 258 183 135 402 368 238 278 137 25 335 182 248 229
b 90 266 276 188 53 9 14 168 90 102 199 257 376 113 92 4 233 403 79 23 32 123
b 91 276 188 53 9 14 168 90 179 102 21 208 199 257 376 113 92 4 233 403 79 23 238 32 123
b 92 171 61 53 44 125 369 365 162 195 116 59 190 83 48 409 278 182 248 69
b 93 61 109 188 53 44 82 231 35 107 255 221 250 125 369 365 191 391 377 425 376 55 162 151 233 195 116 59 190 83 48 409 18 372 41 58 402 243 278 182 248 69 229
b 94 109 188 53 44 82 231 35 107 255 90 221 250 125 369 365 158 191 391 377 425 376 55 162 151 233 195 116 59 190 83 48 210 409 18 372 41 58 402 243 278 182 248 69 229
b 95 324 188 255 281 179 102 279 373 22 87 31 10 48 183 38
b 96 188 53 9 14 44 82 231 5 168 35 107 255 90 281 179 102 21 221 250 125 279 373 22 87 208 369 199 365 411 257 158 191 391 377 425 376 55 113 92 4 140 31 10 162 151 233 195 116 59 403 190 83 48 79 210 409 23 18 372 183 41 58 402 243 238 278 32 123 38 182 248 69 184 229
b 97 53 9 14 44 82 231 5 168 35 107 255 90 281 179 102 21 221 250 125 279 373 22 87 208 369 199 365 411 124 257 158 191 391 377 425 376 55 113 92 4 140 31 10 162 151 233 195 116 59 403 190 83 48 79 210 409 23 18 372 183 41 58 402 243 238 278 32 123 38 182 248 69 184 229
b 98 384 43 9 144 287 73
b 99 43 9 168 144 162 151 287 73 290
b 100 9 14 44 82 231 5 168 35 107 255 90 144 281 179 102 21 221 250 125 279 373 22 87 208 369 199 365 411 124 257 158 191 391 377 425 224 371 376 55 113 92 4 140 31 10 162 151 233 195 116 59 403 287 197 190 83 48 79 210 409 23 73 18 372 258 183 261 41 58 402 243 368 290 238 278 32 123 38 182 248 69 184 245 229
b 101 14 44 82 231 417 295 5 168 35 107 255 90 144 281 56 179 102 383 21 221 250 125 76 279 373 22 87 208 369 19 199 379 154 126 365 50 65 411 72 124 257 158 191 391 377 382 121 425 224 371 376 249 395 55 113 92 4 52 140 31 10 85 162 151 233 26 60 129 195 116 59 403 287 268 197 190 83 48 79 210 409 23 73 423 18 372 258 183 261 41 58 135 402 243 368 290 238 278 32 123 137 25 335 297 38 182 248 69 184 245 229
b 102 44 82 231 417 295 5 168 35 107 255 90 144 281 56 179 102 383 21 221 250 125 76 279 373 22 87 208 369 19 199 379 154 126 365 50 65 411 72 124 257 158 191 391 377 382 121 425 224 371 376 249 395 55 113 92 122 4 52 140 31 10 85 162 151 233 26 211 60 129 195 116 59 403 287 387 268 197 190 83 48 79 210 409 23 73 423 18 372 258 183 261 41 58 135 402 243 368 290 238 278 32 123 137 25 335 297 38 182 248 69 184 245 229
b 103 20 262 96 404 35 21 401 120 256 234 124 140 162 151 210 421 409 23 423 263 180
b 104 262 96 404 35 102 21 401 120 256 234 124 140 162 151 210 421 409 23 423 51 390 263 180
b 105 302 77 219 47 96 404 133 5 90 21 221 291 125 271 103 139 173 177 244 181 2 17 245
b 106 219 47 96 404 133 5 90 383 21 221 291 125 271 103 139 173 177 244 422 181 347 2 17 245
b 107 99 47 281 159 138 358 401 406 369 283 19 201 163 365 50 65 260 122 313 85 83 115 421 185 258 347 243 278 38
b 108 47 96 404 133 5 107 90 281 383 159 21 221 291 138 125 358 401 406 369 271 283 19 201 103 139 173 177 163 365 50 65 260 244 422 122 313 85 83 115 421 185 181 258 347 243 278 2 17 38 245
b 109 186 74 96 133 379 177 175 223 233 211
b 110 74 205 96 133 379 177 244 175 223 233 211
b 111 205 96 133 168 255 281 379 177 244 175 223 233 211
b 112 96 404 133 5 168 35 107 255 90 281 102 383 159 21 221 291 138 125 358 401 406 369 271 283 19 201 379 103 139 173 94 177 163 365 50 65 260 120 256 234 124 244 235 175 422 223 122 313 140 85 162 151 233 211 59 83 210 115 421 185 409 23 423 181 258 347 51 243 16 142 278 2 390 263 17 38 180 245
b 113 392 68 166 417 11 407 389 83 390 38
b 114 68 152 166 404 417 144 281 56 102 159 11 370 237 407 30 52 233 388 389 83 79 267 372 258 347 292 28 390 38 180 93
b 115 152 117 166 404 417 5 168 35 107 144 281 56 179 102 383 159 250 291 11 191 382 187 370 237 407 224 371 160 273 30 249 395 122 52 247 233 388 389 83 79 267 372 258 183 347 292 41 86 28 390 105 38 248 180 93
b 116 117 166 404 417 5 168 35 107 144 281 56 179 102 383 159 250 291 138 128 11 191 382 187 370 237 407 224 371 160 273 30 249 395 122 52 247 233 388 389 83 79 267 372 258 183 347 292 41 86 28 390 105 38 248 180 93
b 117 203 166 133 295 102 103 385 389 367 390
b 118 166 404 133 417 295 5 168 35 107 144 281 56 179 102 383 159 250 291 138 103 385 128 11 235 191 382 187 370 237 407 224 371 160 273 30 249 395 122 52 247 85 233 388 389 83 79 267 372 258 183 347 292 41 367 86 28 123 137 390 105 38 248 180 93
b 119 209 404 249 135 110
b 120 241 133 12 175
b 121 404 133 417 295 5 168 35 107 255 90 144 281 56 179 102 383 159 21 221 250 291 138 125 358 401 406 369 271 283 19 201 379 103 139 173 385 94 177 163 128 365 50 65 260 11 120 256 234 124 244 235 175 191 382 187 370 422 237 407 224 371 223 160 273 30 249 395 122 52 313 140 247 85 162 151 233 388 389 211 59 83 79 210 115 421 185 409 23 267 423 181 372 258 183 347 292 41 367 135 51 243 16 142 278 86 2 28 123 137 390 263 17 105 38 248 110 180 93 245
b 122 133 417 295 5 168 35 107 255 90 144 281 56 179 102 383 159 21 221 250 291 138 125 358 401 406 369 271 283 19 201 379 12 103 139 173 385 94 177 163 128 365 50 65 260 11 120 256 234 124 244 235 175 191 382 187 370 422 237 407 224 371 223 160 273 30 249 395 122 52 313 140 247 85 162 151 233 388 389 211 59 83 79 210 115 421 185 409 23 267 423 181 372 258 183 347 292 41 367 135 51 243 16 142 278 86 2 28 123 137 390 263 17 105 38 248 110 180 93 245
b 123 34 417 134 405
b 124 417 295 5 168 35 107 255 90 144 281 56 179 102 383 159 21 221 250 291 138 125 76 279 373 22 87 358 401 208 406 369 271 283 19 199 201 379 12 103 139 154 173 385 94 177 126 163 128 365 50 65 260 11 411 72 120 256 234 134 124 244 257 235 405 175 158 191 391 377 382 155 187 121 370 422 237 407 425 224 371 223 160 273 376 30 249 395 55 113 92 122 4 52 313 140 247 31 10 85 162 151 233 388 26 389 211 60 129 195 116 59 403 287 387 268 197 190 83 48 79 210 115 421 185 409 23 73 267 423 18 181 372 258 183 261 347 292 41 58 367 135 51 402 243 16 142 368 290 238 278 86 2 32 28 123 137 25 390 263 17 335 105 297 38 182 248 110 180 93 69 184 245 229
b 125 107 255 90 144 281 56 179 102 383 159 21 221 250 291 138 125 76 279 373 22 87 358 401 208 406 369 271 283 19 199 201 379 12 103 139 154 173 385 94 177 126 163 128 365 50 65 260 11 411 72 120 256 234 134 124 244 257 235 405 175 158 191 391 377 382 155 187 121 370 422 237 407 425 224 371 223 160 273 376 30 249 395 55 113 92 122 4 52 313 140 247 31 10 85 162 151 233 388 26 389 211 60 129 195 116 59 403 287 387 268 197 190 83 48 79 210 115 421 185 409 23 73 267 423 18 181 372 258 183 261 347 292 41 58 367 135 51 402 243 16 142 368 290 238 278 86 2 32 28 123 137 25 390 246 263 17 335 105 297 38 182 248 110 180 93 69 184 245 229
b 126 255 90 144 281 56 179 102 383 159 21 221 250 291 138 125 76 279 373 22 87 358 401 208 406 369 271 283 19 199 201 379 12 103 139 154 173 385 94 177 126 163 128 365 50 65 260 11 411 72 120 256 234 134 124 244 257 235 405 175 158 191 391 377 382 155 187 121 370 422 237 407 425 224 371 223 160 273 376 30 249 395 55 113 92 122 4 52 313 140 247 31 10 85 162 151 233 388 26 389 211 60 129 195 116 59 403 287 387 268 197 190 83 48 79 210 115 421 185 64 409 23 73 267 423 18 181 372 258 183 261 347 292 41 58 367 135 51 402 243 16 142 368 290 238 278 86 2 32 28 123 137 25 390 246 263 17 335 105 297 38 182 248 110 180 93 69 184 245 229
b 127 90 144 281 56 179 102 383 159 21 221 250 291 138 125 76 279 373 22 87 358 401 208 406 369 271 283 19 199 201 379 12 103 139 154 173 385 94 177 126 163 128 365 50 65 260 11 411 72 120 256 234 134 124 244 257 235 405 175 158 191 391 377 382 155 187 121 370 422 237 407 425 224 371 223 160 273 376 30 101 249 395 55 113 92 122 4 52 313 140 247 31 10 85 162 151 233 388 26 389 211 60 129 195 116 59 403 287 387 268 197 190 83 48 79 210 115 421 185 64 409 23 73 267 423 18 181 372 258 183 261 347 292 41 58 367 135 51 402 243 16 142 368 290 15 238 278 86 2 32 28 123 137 25 390 246 263 17 335 105 297 38 182 248 110 180 93 69 184 245 229
b 128 144 281 56 179 102 383 159 21 221 250 291 138 125 76 279 373 22 87 358 401 208 406 369 271 283 19 199 201 379 12 103 139 154 173 385 94 177 126 163 128 365 50 65 260 11 411 72 120 256 234 134 124 244 257 235 405 175 158 191 391 377 382 155 187 121 370 422 237 407 425 224 371 223 160 273 376 30 101 249 395 55 113 92 122 4 52 313 140 247 31 10 397 85 162 151 233 388 26 389 211 60 129 195 116 59 403 287 387 268 197 190 83 48 79 210 115 421 185 64 409 23 73 267 423 18 181 372 258 183 261 347 292 41 58 367 135 51 402 243 16 142 368 290 15 238 278 86 2 32 28 123 137 25 390 246 263 17 335 105 297 38 182 248 110 180 93 69 184 245 229
b 129 91 81 80 178 289 221 291 405 187 121 370 189 226 247 388 195 116 73
b 130 81 80 178 289 21 221 291 279 145 154 405 187 121 370 189 226 247 388 389 236 195 116 197 73 181 372 183 292 28 25 390 248
b 131 375 178 289 280 373 283 226 272 18 147
b 132 178 289 280 21 221 291 279 373 283 145 154 256 405 187 121 370 189 226 247 388 389 236 195 116 272 197 73 18 181 372 183 292 149 28 25 390 147 248
b 133 289 280 21 221 291 279 373 283 145 139 154 256 405 382 187 121 370 189 226 247 388 336 389 236 129 195 116 272 197 73 18 181 372 183 292 149 28 25 390 147 248
b 134 169 424 200 280 138 125 173 158 52 236 59 268 372 58
b 135 424 200 280 383 250 138 125 406 173 158 101 52 236 59 268 372 258 58
b 136 200 418 280 383 159 250 138 125 406 173 244 257 157 158 425 224 101 52 389 236 60 129 59 268 197 421 372 258 58 51 123 184
b 137 398 54 418 280 177 387 367 17
b 138 54 418 280 94 177 72 387 367 17
b 139 418 280 383 159 250 138 125 406 173 94 177 366 72 244 257 157 158 425 224 101 52 389 236 60 129 59 387 268 197 421 372 258 58 367 51 123 17 184
b 140 280 383 159 21 221 250 291 138 125 279 373 406 283 145 139 154 173 94 177 366 72 256 244 257 157 405 158 382 187 121 370 189 425 224 101 52 226 247 388 336 389 236 211 60 129 195 116 272 59 387 268 197 421 73 18 181 372 258 183 292 58 367 51 149 28 123 25 390 147 17 248 184
b 141 95 291 391 155 46 252 1
b 142 383 159 21 221 250 291 138 125 76 279 373 22 87 358 401 208 406 369 271 283 19 145 199 201 379 12 103 139 154 173 385 94 177 366 126 163 128 365 50 65 260 11 411 72 120 256 234 134 124 244 257 235 157 405 175 158 191 391 377 382 155 187 121 370 189 422 237 407 425 224 371 223 160 273 376 30 101 249 395 55 113 92 122 4 52 313 140 226 247 31 10 397 85 162 151 233 388 336 26 389 236 211 60 129 195 116 272 59 403 287 387 268 197 190 83 48 79 210 115 421 185 64 409 23 73 267 423 18 181 372 258 183 261 347 292 41 58 367 135 51 402 243 16 142 149 368 290 15 238 278 86 2 32 28 123 137 25 390 147 246 263 17 335 105 297 38 182 248 110 180 93 69 184 245 229
b 143 291 138 125 76 279 373 22 87 358 401 208 406 369 271 283 19 145 199 201 379 12 103 139 154 173 385 94 177 366 126 163 128 365 50 65 260 11 411 72 120 256 234 134 124 244 257 235 157 405 175 158 191 391 377 382 155 187 121 370 189 422 237 407 425 224 371 223 160 273 376 30 101 249 395 55 113 92 122 4 52 313 140 226 247 31 10 397 85 162 151 233 388 46 336 26 389 236 211 60 129 195 116 272 59 403 287 387 268 197 190 83 48 252 79 210 115 421 185 64 409 23 73 267 423 18 181 372 258 183 261 347 292 41 58 367 135 51 402 243 1 16 142 149 368 290 15 238 278 86 2 32 28 123 137 25 390 147 246 263 17 335 105 297 38 182 248 110 180 93 69 184 245 229
b 144 76 279 373 22 87 358 401 208 406 369 271 283 19 145 199 201 379 12 103 139 154 173 385 94 177 366 126 163 128 365 50 65 260 11 411 72 120 256 234 134 124 244 257 235 157 405 175 158 191 391 377 382 155 187 121 370 189 422 237 407 425 224 371 223 160 273 376 30 101 249 395 55 113 92 122 4 52 313 140 226 247 31 10 397 85 162 151 233 388 46 336 26 389 236 211 60 129 195 116 272 59 403 287 387 268 197 190 83 48 252 79 210 115 421 185 64 409 23 73 267 423 18 181 372 258 183 261 347 292 41 58 367 135 51 402 243 40 1 16 142 149 378 368 63 290 15 238 254 278 167 426 170 174 218 86 2 32 28 123 137 25 390 147 242 246 263 17 335 105 297 38 182 248 110 180 93 69 184 245 229
b 145 283 19 145 199 201 379 12 103 139 154 173 385 94 177 366 126 163 128 365 50 65 260 11 411 72 120 256 234 134 124 244 257 235 157 405 175 158 191 391 377 382 155 187 121 370 189 422 237 407 425 224 371 223 160 273 376 30 101 249 395 55 113 92 122 4 52 313 140 226 247 31 10 397 85 162 151 233 388 46 336 26 389 236 211 60 129 195 116 272 59 403 287 387 268 197 190 83 48 252 79 210 115 421 185 64 409 23 73 267 423 18 181 372 258 183 261 347 292 41 58 367 135 51 402 243 40 1 16 142 149 378 368 63 290 253 15 238 254 278 167 426 170 174 196 218 86 2 32 28 123 137 25 390 147 242 246 263 17 335 105 297 38 182 248 110 180 93 69 184 245 229
b 146 256 234 134 124 244 257 235 157 405 175 158 191 391 377 382 155 187 121 370 189 422 237 407 425 224 371 223 160 273 376 30 101 249 395 55 113 92 122 4 52 313 140 226 247 31 10 397 85 162 151 233 388 46 336 26 389 236 211 60 129 195 116 272 59 403 287 387 268 197 190 83 48 252 79 210 115 421 185 64 409 23 73 267 423 18 181 372 258 183 261 347 292 41 58 367 135 51 402 243 40 1 16 142 149 378 368 63 290 253 15 238 254 278 36 167 426 170 174 196 218 86 2 32 28 123 137 25 390 147 242 246 263 17 335 105 297 38 182 248 110 180 93 69 184 245 229
b 147 318 354 98 285 309 15 86 2 147 242 110
b 148 323 354 321 304 346
b 149 310 293 354 334 51 253 147
b 150 354 98 334 285 309 321 317 304 346 51 253 15 86 2 147 242 110
b 151 357 330 359 98 339 206 25 390
b 152 330 359 98 339 308 206 51 137 25 390
b 153 314 352 359 334 339 308 218 2 242 184
b 154 352 359 334 339 308 40 1 218 2 242 184
b 155 359 98 334 339 308 206 51 40 1 196 218 2 137 25 390 242 184
b 156 98 334 339 285 308 309 206 321 317 304 346 51 40 1 253 15 238 196 218 86 2 137 25 390 147 242 263 297 182 110 184 229
b 157 355 332 349 334 312 285 40 123 110 184
b 158 332 340 349 334 339 312 285 344 351 367 135 40 16 123 242 110 184
b 159 340 298 349 334 339 312 285 344 351 367 135 40 16 123 242 110 184
b 160 298 349 334 339 312 285 344 309 206 351 367 135 40 16 123 242 110 184
b 161 320 322 349 305 344
b 162 322 349 305 344 346 63
b 163 349 334 339 312 285 305 344 309 206 346 351 367 135 40 16 63 123 242 110 184
b 164 361 339 309 329 304 346 351 137
b 165 334 339 312 285 305 344 308 309 206 321 317 304 346 351 367 135 51 40 1 16 63 253 15 238 196 218 86 2 123 137 25 390 147 242 263 297 182 110 184 229
b 166 339 312 285 305 344 308 309 329 206 321 317 304 346 351 367 135 51 40 1 16 63 253 15 238 196 218 86 2 123 137 25 390 147 242 263 297 182 110 184 229
b 167 343 362 333
b 168 362 319 172 333 338 364 327 308 329 206 351 16 142
b 169 319 172 333 338 364 327 308 329 206 351 16 142 28
b 170 420 259 17 335 105 38
b 171 259 286 172 206 368 290 238 36 167 170 174 32 17 335 105 38 180 93 69 245
b 172 172 333 338 364 327 308 329 206 351 16 142 368 290 238 36 167 170 174 32 28 17 335 105 38 180 93 69 245
b 173 307 327 305 344 309 206
b 174 301 356 333 327 285 305 321
b 175 356 333 327 285 305 321 317 304 254
b 176 363 342 311 348 338 312 110
b 177 342 311 348 338 364 327 312 344 317 218 86 110
b 178 311 348 338 364 327 312 344 317 378 253 218 86 110
b 179 306 337 325 348 135 402 426
b 180 337 325 348 333 346 135 402 426 110
b 181 325 348 333 308 346 135 402 426 28 110
b 182 348 333 338 364 327 312 344 308 317 346 135 402 378 253 426 218 86 28 110
b 183 333 338 364 327 312 285 305 344 308 329 206 321 317 304 346 351 135 402 16 142 378 368 290 253 238 254 36 167 426 170 174 218 86 32 28 17 335 105 38 110 180 93 69 245
b 184 327 312 285 305 344 308 309 329 206 321 317 304 346 351 135 402 16 142 378 368 290 253 238 254 36 167 426 170 174 218 86 32 28 17 335 105 38 110 180 93 69 184 245
b 185 345 317 15 184
b 186 299 309 149 137
b 187 312 285 305 344 308 309 329 206 321 317 304 346 351 367 135 51 402 40 1 16 142 378 368 63 290 253 15 238 254 36 167 426 170 174 196 218 86 2 32 28 123 137 25 390 147 242 263 17 335 105 297 38 182 110 180 93 69 184 245 229
b 188 309 329 206 321 317 304 346 351 367 135 51 402 40 1 16 142 149 378 368 63 290 253 15 238 254 36 167 426 170 174 196 218 86 2 32 28 123 137 25 390 147 242 263 17 335 105 297 38 182 110 180 93 69 184 245 229
b 189 206 321 317 304 346 351 367 135 51 402 243 40 1 16 142 149 378 368 63 290 253 15 238 254 278 36 167 426 170 174 196 218 86 2 32 28 123 137 25 390 147 242 246 263 17 335 105 297 38 182 248 110 180 93 69 184 245 229
b 190 300
b 191 350
b 192 353
b 193 414
1 95
95 96
96 97
97 100
100 101
101 102
102 124
124 125
125 126
126 127
127 128
128 142
142 143
143 144
144 81
81 80
80 79
79 78
78 77
77 76
144 145
145 146
76 47
47 46
46 45
76 72
72 71
124 122
122 121
45 37
37 36
71 70
70 66
71 57
121 112
36 35
142 140
66 62
121 118
36 29
118 116
116 115
57 52
146 189
189 188
188 187
101 89
112 108
29 28
45 44
96 94
187 184
94 93
184 183
140 133
187 166
166 165
62 61
133 132
35 32
140 139
165 156
139 136
62 60
132 130
115 114
52 49
108 107
49 48
183 172
44 43
52 51
32 31
60 59
57 55
55 54
28 26
26 25
108 106
96 91
89 87
28 27
44 40
54 53
112 104
35 30
89 83
106 105
87 86
66 65
65 64
51 50
91 90
104 103
86 85
64 63
165 163
93 92
172 171
183 182
83 82
136 135
130 129
163 160
156 150
156 155
43 42
160 159
159 158
70 69
42 41
57 56
135 134
29 24
69 68
172 169
182 178
169 168
112 111
178 177
111 110
89 88
155 154
150 147
182 181
132 131
114 113
24 23
110 109
155 152
158 157
118 117
154 153
181 180
183 175
100 99
139 138
166 164
78 73
152 151
138 137
180 179
177 176
143 141
175 174
171 170
40 39
150 149
99 98
163 162
184 173
85 84
76 74
150 148
121 119
162 161
35 34
187 185
68 67
65 75
188 186
39 38
124 123
71 58
122 120
35 33
165 18
73 22
111 21
120 9
109 13
109 12
12 11
101 10
23 8
179 16
168 167
167 15
157 20
168 14
151 19
57 17
62 5
112 7
162 6
79 4
157 3
18 2
1 190
1 191
1 192
1 193
